DIMACS_lns/graph-1000-793.col
p edge 1000 1827
e 1 551
e 1 952
e 1 636
e 1 427
e 1 200
e 2 144
e 2 219
e 2 260
e 3 753
e 3 459
e 3 105
e 3 113
e 4 751
e 4 36
e 4 562
e 4 106
e 4 248
e 5 732
e 5 871
e 5 936
e 7 879
e 7 368
e 7 449
e 7 923
e 8 857
e 8 374
e 8 181
e 9 57
e 9 589
e 9 219
e 13 150
e 13 121
e 13 274
e 13 961
e 13 77
e 14 523
e 14 877
e 14 824
e 14 622
e 14 525
e 14 375
e 14 105
e 14 748
e 15 857
e 15 337
e 15 414
e 15 652
e 15 692
e 16 17
e 16 581
e 16 315
e 16 885
e 16 19
e 17 719
e 17 653
e 17 986
e 17 487
e 17 119
e 17 894
e 19 110
e 19 726
e 19 339
e 21 943
e 21 763
e 21 147
e 21 78
e 21 200
e 22 450
e 22 428
e 22 791
e 22 392
e 23 100
e 23 109
e 23 77
e 23 722
e 23 167
e 23 197
e 23 689
e 23 832
e 24 66
e 24 689
e 24 42
e 24 968
e 24 567
e 25 972
e 25 430
e 25 419
e 26 581
e 26 269
e 26 915
e 27 921
e 27 622
e 27 576
e 28 281
e 28 169
e 28 773
e 28 991
e 28 654
e 30 830
e 30 706
e 30 461
e 30 148
e 30 752
e 31 263
e 31 799
e 31 380
e 31 782
e 32 888
e 32 579
e 32 280
e 32 254
e 32 904
e 32 577
e 32 58
e 33 705
e 33 198
e 33 151
e 36 384
e 36 197
e 36 318
e 37 241
e 37 249
e 37 375
e 37 191
e 37 676
e 38 730
e 38 352
e 38 382
e 38 42
e 42 225
e 42 218
e 42 841
e 42 432
e 42 870
e 42 646
e 43 905
e 43 160
e 43 705
e 44 952
e 44 584
e 44 880
e 44 390
e 44 978
e 44 987
e 44 276
e 45 764
e 45 385
e 45 690
e 45 930
e 45 510
e 45 261
e 46 282
e 46 968
e 46 259
e 46 344
e 46 787
e 46 686
e 47 935
e 47 880
e 47 237
e 47 487
e 51 782
e 51 80
e 51 148
e 52 100
e 52 812
e 52 151
e 52 117
e 52 589
e 54 693
e 54 877
e 54 911
e 54 857
e 55 135
e 55 963
e 55 636
e 56 662
e 56 674
e 56 232
e 56 62
e 56 966
e 56 697
e 56 96
e 57 622
e 57 276
e 57 391
e 57 148
e 57 778
e 58 707
e 58 138
e 60 261
e 60 188
e 60 962
e 60 337
e 61 100
e 61 274
e 61 673
e 61 973
e 61 750
e 62 743
e 62 838
e 62 787
e 62 850
e 62 806
e 62 897
e 62 818
e 63 316
e 63 175
e 63 785
e 63 432
e 66 687
e 66 872
e 67 660
e 67 877
e 67 509
e 67 989
e 67 701
e 68 636
e 68 913
e 68 862
e 68 410
e 69 321
e 69 322
e 69 412
e 69 939
e 71 985
e 71 882
e 71 437
e 72 312
e 72 883
e 72 557
e 73 384
e 73 138
e 73 711
e 75 577
e 75 309
e 75 380
e 75 777
e 76 987
e 76 259
e 76 677
e 76 321
e 76 405
e 76 463
e 77 111
e 77 150
e 77 941
e 77 366
e 78 927
e 78 579
e 78 231
e 79 224
e 79 251
e 79 392
e 80 117
e 80 768
e 82 975
e 82 236
e 82 674
e 83 236
e 83 836
e 83 938
e 83 856
e 83 830
e 85 562
e 85 316
e 85 986
e 85 710
e 85 130
e 86 129
e 86 197
e 86 352
e 86 998
e 86 91
e 88 520
e 88 131
e 88 926
e 89 595
e 89 890
e 89 789
e 89 699
e 90 713
e 90 979
e 90 507
e 91 224
e 91 612
e 91 234
e 91 354
e 91 686
e 91 493
e 91 113
e 92 857
e 92 392
e 92 686
e 92 666
e 92 481
e 92 584
e 92 590
e 92 815
e 93 486
e 93 242
e 93 404
e 94 583
e 94 262
e 94 127
e 94 661
e 94 793
e 94 574
e 95 611
e 95 701
e 95 647
e 95 296
e 95 541
e 96 225
e 96 188
e 97 292
e 97 431
e 97 439
e 98 412
e 98 751
e 98 288
e 98 796
e 98 292
e 98 235
e 99 138
e 99 223
e 99 232
e 99 968
e 99 785
e 99 781
e 100 870
e 101 869
e 101 286
e 101 667
e 103 236
e 103 660
e 103 144
e 103 540
e 103 737
e 104 245
e 104 1000
e 104 514
e 104 650
e 104 923
e 104 914
e 105 167
e 105 161
e 105 347
e 105 182
e 105 976
e 106 117
e 106 534
e 106 947
e 107 149
e 107 204
e 107 883
e 109 766
e 109 989
e 109 206
e 109 903
e 110 235
e 110 911
e 110 687
e 110 140
e 111 956
e 111 311
e 111 766
e 112 644
e 112 503
e 112 139
e 112 762
e 113 207
e 113 739
e 113 458
e 113 777
e 114 465
e 114 699
e 114 208
e 114 537
e 115 151
e 115 353
e 115 534
e 115 769
e 117 595
e 117 342
e 117 133
e 117 223
e 117 714
e 117 607
e 119 709
e 119 934
e 119 947
e 120 257
e 120 122
e 120 576
e 121 236
e 121 675
e 121 138
e 121 697
e 121 692
e 122 427
e 122 584
e 122 595
e 123 232
e 123 667
e 123 675
e 123 531
e 124 739
e 124 533
e 124 551
e 127 604
e 127 374
e 127 351
e 127 296
e 128 347
e 128 915
e 128 567
e 129 647
e 129 295
e 129 981
e 129 358
e 129 171
e 130 799
e 130 212
e 130 320
e 131 137
e 131 400
e 131 276
e 131 563
e 132 564
e 132 199
e 132 223
e 132 647
e 132 164
e 132 316
e 133 517
e 133 871
e 133 397
e 133 488
e 134 526
e 134 621
e 134 281
e 135 875
e 135 620
e 135 353
e 135 777
e 135 599
e 137 343
e 137 385
e 137 291
e 138 390
e 138 399
e 139 540
e 139 391
e 140 640
e 140 615
e 140 531
e 142 789
e 142 499
e 142 970
e 144 949
e 144 338
e 144 561
e 144 439
e 144 302
e 147 779
e 147 348
e 147 724
e 148 812
e 148 863
e 148 994
e 149 893
e 149 887
e 149 645
e 150 947
e 150 941
e 150 995
e 150 879
e 150 747
e 151 798
e 151 647
e 151 475
e 151 625
e 151 579
e 151 277
e 151 465
e 152 545
e 152 626
e 152 284
e 152 525
e 152 169
e 152 930
e 152 737
e 152 178
e 153 616
e 153 754
e 153 342
e 153 769
e 159 218
e 159 719
e 159 934
e 160 204
e 160 549
e 160 859
e 160 374
e 161 629
e 161 355
e 161 369
e 162 473
e 162 327
e 162 191
e 162 934
e 163 433
e 163 809
e 163 736
e 164 213
e 164 609
e 165 881
e 165 927
e 165 801
e 166 637
e 166 613
e 166 611
e 167 930
e 167 750
e 167 563
e 168 354
e 168 172
e 168 935
e 168 700
e 168 381
e 169 349
e 169 429
e 171 789
e 171 623
e 171 197
e 172 557
e 172 266
e 173 399
e 173 482
e 173 751
e 173 262
e 175 263
e 175 349
e 175 896
e 176 560
e 176 410
e 176 251
e 176 594
e 176 942
e 176 967
e 177 399
e 177 402
e 177 716
e 178 269
e 178 332
e 178 552
e 178 675
e 178 711
e 181 193
e 181 398
e 182 204
e 182 586
e 182 761
e 182 482
e 182 402
e 186 542
e 186 597
e 186 466
e 188 669
e 188 728
e 188 821
e 189 582
e 189 849
e 189 570
e 189 776
e 190 993
e 190 430
e 190 695
e 190 713
e 190 562
e 190 699
e 191 868
e 191 223
e 191 264
e 191 510
e 191 416
e 193 283
e 193 493
e 193 753
e 196 356
e 196 300
e 196 511
e 196 369
e 197 914
e 198 932
e 198 875
e 199 478
e 199 503
e 199 636
e 200 620
e 200 367
e 200 857
e 200 580
e 200 897
e 200 489
e 200 610
e 201 499
e 201 768
e 201 533
e 202 1000
e 202 321
e 202 931
e 202 688
e 203 845
e 203 941
e 203 782
e 203 889
e 203 844
e 203 402
e 204 806
e 204 994
e 204 447
e 204 312
e 206 825
e 206 822
e 206 932
e 206 942
e 207 409
e 207 482
e 207 806
e 208 567
e 208 666
e 208 470
e 210 564
e 210 569
e 210 513
e 210 474
e 212 991
e 212 403
e 212 829
e 213 780
e 213 551
e 213 697
e 213 644
e 213 526
e 214 504
e 214 295
e 214 267
e 216 300
e 216 977
e 216 646
e 216 584
e 217 499
e 217 891
e 217 377
e 217 583
e 217 341
e 217 382
e 218 316
e 218 454
e 219 308
e 219 882
e 222 657
e 222 372
e 222 807
e 222 295
e 224 405
e 224 833
e 224 699
e 224 781
e 224 496
e 225 338
e 225 394
e 225 311
e 225 930
e 225 356
e 226 806
e 226 344
e 226 383
e 226 724
e 226 413
e 226 596
e 229 856
e 229 424
e 229 928
e 229 382
e 231 523
e 231 854
e 232 295
e 232 824
e 232 233
e 233 385
e 233 584
e 233 876
e 233 705
e 234 960
e 234 532
e 234 401
e 234 858
e 234 995
e 234 782
e 234 286
e 234 794
e 234 787
e 234 283
e 234 715
e 235 369
e 235 587
e 235 288
e 235 768
e 236 443
e 236 340
e 236 780
e 236 315
e 237 797
e 237 559
e 237 695
e 239 513
e 239 406
e 239 610
e 240 309
e 240 510
e 240 629
e 241 423
e 241 600
e 241 669
e 242 494
e 242 577
e 242 351
e 242 734
e 242 994
e 242 878
e 243 340
e 243 739
e 243 308
e 244 547
e 244 850
e 244 877
e 245 455
e 245 438
e 245 689
e 245 995
e 247 792
e 247 393
e 247 984
e 248 761
e 248 728
e 248 567
e 249 466
e 249 792
e 250 570
e 250 654
e 250 728
e 251 998
e 253 410
e 253 291
e 253 528
e 253 263
e 253 952
e 253 544
e 254 400
e 254 342
e 254 572
e 254 405
e 254 763
e 256 845
e 256 942
e 256 507
e 256 798
e 257 440
e 257 540
e 258 660
e 258 566
e 258 439
e 259 469
e 259 904
e 259 447
e 259 873
e 260 310
e 260 607
e 261 662
e 261 285
e 261 960
e 261 408
e 261 860
e 262 685
e 262 343
e 262 338
e 262 286
e 263 532
e 263 835
e 263 340
e 264 451
e 264 811
e 264 300
e 264 817
e 266 880
e 266 514
e 267 963
e 267 317
e 267 545
e 268 453
e 268 378
e 268 514
e 269 836
e 269 579
e 271 834
e 271 974
e 271 559
e 271 742
e 271 431
e 271 698
e 272 513
e 272 640
e 272 993
e 272 695
e 274 379
e 274 496
e 274 595
e 274 894
e 275 586
e 275 408
e 275 653
e 275 968
e 277 550
e 277 642
e 280 555
e 280 582
e 280 311
e 281 782
e 282 891
e 282 730
e 283 411
e 283 374
e 283 739
e 284 913
e 284 561
e 284 301
e 284 394
e 285 650
e 285 695
e 286 976
e 286 304
e 286 905
e 288 386
e 288 674
e 288 770
e 288 445
e 288 304
e 291 473
e 291 864
e 291 458
e 292 337
e 292 464
e 292 409
e 292 623
e 292 438
e 292 932
e 293 962
e 293 936
e 293 397
e 293 402
e 294 947
e 294 748
e 294 511
e 294 966
e 294 419
e 294 822
e 294 886
e 295 581
e 295 721
e 295 876
e 295 522
e 295 940
e 296 709
e 299 979
e 299 685
e 299 877
e 299 713
e 300 343
e 300 507
e 300 727
e 301 394
e 301 883
e 302 405
e 302 967
e 302 836
e 304 934
e 304 526
e 306 363
e 306 565
e 306 597
e 307 636
e 307 379
e 307 705
e 308 475
e 308 743
e 309 499
e 309 888
e 309 572
e 310 739
e 310 312
e 310 359
e 311 566
e 311 725
e 311 421
e 311 688
e 312 640
e 312 991
e 312 545
e 313 371
e 313 708
e 313 975
e 313 669
e 315 496
e 315 965
e 316 572
e 316 891
e 317 517
e 317 350
e 317 590
e 317 592
e 318 386
e 318 322
e 318 978
e 318 930
e 318 833
e 318 784
e 320 542
e 320 742
e 320 572
e 320 501
e 320 610
e 322 461
e 322 764
e 322 744
e 324 993
e 324 411
e 324 686
e 327 754
e 327 618
e 327 395
e 327 884
e 327 894
e 328 993
e 328 896
e 328 998
e 328 507
e 330 507
e 330 899
e 330 563
e 330 516
e 331 598
e 331 536
e 331 441
e 332 876
e 332 833
e 332 835
e 332 857
e 333 636
e 333 613
e 333 998
e 333 868
e 336 405
e 336 496
e 336 511
e 336 394
e 336 730
e 336 509
e 337 532
e 337 763
e 337 459
e 338 893
e 338 891
e 338 606
e 338 586
e 339 630
e 339 504
e 339 880
e 339 858
e 339 468
e 340 675
e 340 452
e 340 687
e 340 614
e 341 598
e 341 537
e 341 748
e 341 589
e 342 962
e 342 615
e 342 806
e 342 979
e 344 380
e 344 778
e 344 777
e 344 763
e 344 351
e 347 514
e 348 543
e 348 384
e 349 851
e 350 621
e 350 534
e 352 700
e 352 815
e 352 435
e 352 990
e 352 597
e 353 650
e 353 610
e 354 829
e 354 494
e 354 531
e 355 463
e 355 433
e 355 836
e 356 544
e 356 972
e 356 719
e 357 413
e 357 424
e 357 959
e 358 882
e 358 420
e 358 776
e 359 581
e 359 941
e 359 513
e 359 611
e 361 814
e 361 368
e 361 494
e 361 886
e 363 601
e 363 577
e 363 487
e 363 901
e 363 390
e 363 917
e 364 672
e 364 977
e 364 937
e 365 636
e 365 646
e 365 754
e 366 549
e 366 577
e 366 801
e 366 726
e 366 563
e 366 646
e 366 481
e 367 514
e 367 430
e 368 812
e 368 765
e 368 534
e 369 377
e 369 676
e 371 414
e 371 891
e 371 486
e 371 438
e 371 440
e 371 379
e 371 836
e 372 441
e 372 604
e 372 428
e 374 533
e 374 591
e 374 507
e 374 776
e 374 520
e 375 512
e 375 488
e 376 426
e 376 781
e 376 431
e 377 731
e 377 739
e 378 880
e 378 938
e 378 512
e 378 935
e 378 739
e 378 887
e 379 891
e 380 566
e 380 727
e 380 803
e 381 591
e 381 410
e 381 990
e 381 882
e 382 874
e 382 561
e 382 613
e 383 390
e 383 997
e 383 767
e 384 450
e 384 451
e 384 931
e 384 584
e 385 876
e 385 445
e 385 857
e 385 987
e 386 862
e 386 782
e 386 415
e 386 928
e 386 452
e 390 725
e 391 707
e 391 654
e 392 873
e 392 436
e 392 548
e 393 824
e 393 840
e 393 833
e 393 646
e 393 905
e 393 635
e 393 504
e 393 742
e 395 540
e 395 661
e 395 400
e 395 531
e 396 525
e 396 914
e 396 797
e 396 646
e 397 801
e 398 899
e 398 857
e 398 807
e 398 496
e 399 568
e 399 999
e 399 897
e 399 597
e 399 445
e 400 839
e 400 840
e 400 501
e 400 791
e 400 863
e 401 622
e 401 963
e 401 455
e 402 479
e 402 470
e 402 654
e 402 943
e 403 580
e 403 999
e 404 841
e 404 849
e 405 811
e 405 813
e 406 673
e 406 516
e 406 975
e 406 843
e 406 700
e 408 913
e 408 828
e 408 720
e 408 630
e 409 878
e 409 660
e 409 424
e 410 813
e 411 689
e 411 534
e 412 863
e 412 513
e 413 662
e 413 845
e 413 512
e 413 652
e 413 700
e 413 748
e 414 494
e 414 874
e 414 752
e 415 545
e 415 734
e 415 473
e 415 714
e 416 449
e 416 590
e 417 777
e 417 574
e 417 889
e 419 737
e 419 739
e 419 909
e 419 673
e 419 448
e 419 733
e 420 523
e 420 464
e 420 970
e 420 612
e 420 933
e 421 813
e 421 429
e 421 713
e 421 798
e 423 807
e 423 461
e 423 625
e 423 873
e 424 698
e 424 987
e 424 824
e 425 573
e 425 695
e 425 730
e 426 809
e 426 780
e 426 431
e 427 773
e 427 739
e 427 825
e 427 616
e 428 629
e 428 813
e 428 446
e 428 890
e 429 990
e 429 550
e 430 968
e 430 799
e 430 636
e 431 873
e 431 454
e 431 439
e 431 594
e 431 673
e 431 762
e 432 454
e 432 882
e 433 903
e 435 807
e 435 550
e 435 956
e 436 574
e 436 618
e 437 540
e 437 660
e 437 664
e 438 803
e 438 630
e 439 767
e 439 925
e 440 631
e 440 929
e 441 594
e 441 889
e 441 885
e 443 509
e 443 932
e 443 967
e 443 599
e 445 815
e 445 536
e 445 569
e 446 642
e 446 833
e 447 654
e 447 830
e 447 463
e 448 941
e 448 822
e 448 731
e 448 662
e 449 481
e 449 689
e 449 508
e 450 470
e 450 996
e 450 664
e 450 793
e 450 728
e 451 814
e 451 710
e 451 463
e 452 668
e 452 909
e 452 559
e 453 636
e 453 893
e 453 642
e 453 985
e 454 845
e 454 757
e 455 582
e 455 600
e 455 807
e 456 831
e 456 521
e 456 976
e 457 934
e 457 835
e 457 840
e 458 590
e 458 708
e 459 470
e 461 933
e 463 734
e 463 590
e 464 933
e 464 496
e 464 583
e 465 645
e 465 613
e 465 959
e 465 710
e 465 869
e 465 555
e 466 675
e 466 961
e 467 858
e 467 638
e 467 487
e 468 661
e 468 645
e 468 549
e 468 988
e 469 788
e 469 610
e 470 743
e 470 872
e 470 708
e 470 693
e 470 630
e 474 905
e 474 863
e 475 750
e 475 880
e 478 716
e 478 779
e 478 521
e 479 784
e 479 799
e 479 736
e 481 697
e 481 711
e 481 831
e 481 530
e 482 991
e 486 841
e 487 801
e 488 654
e 488 647
e 489 752
e 489 932
e 489 661
e 493 547
e 493 917
e 493 608
e 494 779
e 494 705
e 497 526
e 497 869
e 497 809
e 497 586
e 499 859
e 499 843
e 499 962
e 499 990
e 501 778
e 502 621
e 502 579
e 502 524
e 503 692
e 504 565
e 504 949
e 507 791
e 507 889
e 507 997
e 507 606
e 508 928
e 508 644
e 509 821
e 509 845
e 510 716
e 510 564
e 510 884
e 510 557
e 511 844
e 512 517
e 512 520
e 513 757
e 514 932
e 514 978
e 516 869
e 517 653
e 517 829
e 517 818
e 520 829
e 520 917
e 521 559
e 521 941
e 521 963
e 522 757
e 522 673
e 523 896
e 524 787
e 524 900
e 525 640
e 526 975
e 528 533
e 528 675
e 528 568
e 530 951
e 530 667
e 530 605
e 531 850
e 531 881
e 531 763
e 532 773
e 532 975
e 532 586
e 532 965
e 533 542
e 533 881
e 534 831
e 534 873
e 534 913
e 534 638
e 534 922
e 536 834
e 536 877
e 537 543
e 537 722
e 540 915
e 540 986
e 540 682
e 541 629
e 541 933
e 542 767
e 542 689
e 543 604
e 543 868
e 544 876
e 544 721
e 547 737
e 547 701
e 547 735
e 547 815
e 547 750
e 548 726
e 548 729
e 548 981
e 549 985
e 550 736
e 550 889
e 550 716
e 551 730
e 551 939
e 552 664
e 552 882
e 552 829
e 552 876
e 555 736
e 555 647
e 557 894
e 557 609
e 557 624
e 559 909
e 559 987
e 560 850
e 560 669
e 561 982
e 561 596
e 561 793
e 561 567
e 561 745
e 562 959
e 562 598
e 563 958
e 563 877
e 563 747
e 563 843
e 563 942
e 565 743
e 565 900
e 565 860
e 566 742
e 566 879
e 567 974
e 568 660
e 569 828
e 569 991
e 570 903
e 572 1000
e 572 793
e 573 724
e 573 904
e 574 690
e 574 725
e 576 836
e 577 803
e 579 985
e 579 943
e 580 855
e 580 925
e 580 927
e 580 596
e 581 875
e 581 618
e 582 991
e 582 597
e 582 829
e 582 750
e 583 938
e 584 939
e 584 613
e 584 614
e 584 753
e 584 767
e 586 877
e 587 847
e 587 986
e 589 751
e 590 636
e 590 700
e 591 754
e 592 995
e 592 782
e 594 833
e 594 917
e 594 904
e 594 851
e 596 933
e 596 872
e 596 751
e 596 835
e 596 609
e 597 963
e 598 833
e 598 726
e 599 860
e 599 644
e 599 977
e 600 765
e 601 788
e 601 613
e 604 620
e 604 729
e 604 635
e 604 883
e 605 645
e 605 851
e 606 995
e 606 807
e 607 997
e 608 869
e 608 901
e 610 909
e 610 666
e 612 797
e 613 657
e 613 645
e 613 732
e 613 615
e 613 710
e 613 966
e 614 690
e 614 942
e 616 732
e 616 707
e 618 625
e 618 645
e 620 940
e 621 868
e 622 877
e 622 875
e 623 668
e 624 665
e 624 692
e 624 645
e 625 695
e 625 743
e 625 700
e 625 973
e 626 967
e 626 868
e 626 888
e 626 801
e 626 974
e 629 952
e 631 828
e 631 768
e 635 780
e 636 917
e 637 940
e 637 900
e 638 856
e 640 648
e 642 939
e 642 965
e 644 722
e 644 952
e 644 990
e 645 923
e 645 854
e 646 890
e 648 975
e 648 988
e 648 968
e 650 695
e 650 693
e 652 701
e 654 937
e 657 672
e 657 998
e 661 896
e 662 984
e 662 803
e 664 996
e 664 998
e 665 836
e 665 825
e 666 970
e 666 890
e 668 752
e 668 724
e 669 797
e 669 951
e 669 929
e 672 859
e 672 767
e 673 700
e 673 949
e 675 925
e 676 801
e 677 925
e 677 767
e 682 709
e 682 750
e 685 768
e 686 840
e 686 830
e 687 888
e 688 706
e 688 901
e 689 817
e 689 870
e 689 763
e 690 735
e 692 721
e 692 710
e 695 720
e 697 889
e 697 792
e 698 882
e 698 830
e 699 785
e 700 961
e 700 858
e 701 963
e 701 764
e 702 956
e 702 840
e 702 958
e 705 729
e 705 847
e 706 788
e 711 903
e 711 764
e 714 807
e 714 947
e 715 936
e 715 821
e 716 834
e 716 990
e 716 734
e 716 972
e 719 721
e 719 789
e 720 729
e 724 796
e 726 947
e 726 839
e 727 788
e 728 847
e 730 817
e 731 888
e 732 985
e 733 734
e 733 914
e 734 747
e 734 834
e 735 862
e 736 875
e 736 896
e 742 864
e 743 763
e 744 807
e 744 936
e 745 931
e 745 818
e 745 928
e 748 821
e 750 961
e 751 794
e 754 887
e 754 933
e 754 984
e 757 838
e 761 812
e 762 933
e 763 935
e 764 911
e 764 794
e 765 951
e 766 993
e 767 987
e 768 779
e 769 828
e 769 832
e 770 923
e 770 873
e 773 799
e 776 956
e 777 926
e 779 855
e 780 836
e 780 975
e 780 933
e 782 847
e 784 878
e 784 812
e 787 873
e 787 989
e 788 972
e 791 798
e 792 903
e 793 850
e 794 943
e 796 998
e 799 917
e 801 857
e 803 967
e 807 973
e 807 990
e 809 911
e 809 981
e 811 856
e 812 904
e 812 871
e 813 849
e 814 868
e 815 922
e 818 982
e 818 923
e 822 887
e 824 967
e 825 839
e 825 882
e 825 896
e 829 934
e 830 838
e 830 959
e 831 962
e 832 835
e 832 917
e 835 929
e 836 901
e 836 922
e 838 876
e 840 994
e 843 984
e 843 962
e 844 881
e 845 880
e 849 962
e 850 996
e 850 855
e 851 937
e 851 951
e 851 979
e 851 869
e 854 885
e 859 873
e 862 958
e 864 975
e 870 974
e 874 932
e 875 921
e 876 889
e 877 940
e 884 909
e 886 963
e 888 938
e 890 937
e 897 899
e 904 949
e 905 927
e 905 967
e 913 977
e 921 982
e 923 990
e 925 947
e 926 970
e 928 987
e 929 961
e 933 982
e 937 993
e 938 988
e 943 949
e 949 989
e 952 960
e 962 977
e 968 985
e 977 999
e 977 982
