txt_Ins/graph-1000-793.txt
n 1000
e 0 550
e 0 951
e 0 635
e 0 426
e 0 199
e 1 143
e 1 218
e 1 259
e 2 752
e 2 458
e 2 104
e 2 112
e 3 750
e 3 35
e 3 561
e 3 105
e 3 247
e 4 731
e 4 870
e 4 935
e 6 878
e 6 367
e 6 448
e 6 922
e 7 856
e 7 373
e 7 180
e 8 56
e 8 588
e 8 218
e 12 149
e 12 120
e 12 273
e 12 960
e 12 76
e 13 522
e 13 876
e 13 823
e 13 621
e 13 524
e 13 374
e 13 104
e 13 747
e 14 856
e 14 336
e 14 413
e 14 651
e 14 691
e 15 16
e 15 580
e 15 314
e 15 884
e 15 18
e 16 718
e 16 652
e 16 985
e 16 486
e 16 118
e 16 893
e 18 109
e 18 725
e 18 338
e 20 942
e 20 762
e 20 146
e 20 77
e 20 199
e 21 449
e 21 427
e 21 790
e 21 391
e 22 99
e 22 108
e 22 76
e 22 721
e 22 166
e 22 196
e 22 688
e 22 831
e 23 65
e 23 688
e 23 41
e 23 967
e 23 566
e 24 971
e 24 429
e 24 418
e 25 580
e 25 268
e 25 914
e 26 920
e 26 621
e 26 575
e 27 280
e 27 168
e 27 772
e 27 990
e 27 653
e 29 829
e 29 705
e 29 460
e 29 147
e 29 751
e 30 262
e 30 798
e 30 379
e 30 781
e 31 887
e 31 578
e 31 279
e 31 253
e 31 903
e 31 576
e 31 57
e 32 704
e 32 197
e 32 150
e 35 383
e 35 196
e 35 317
e 36 240
e 36 248
e 36 374
e 36 190
e 36 675
e 37 729
e 37 351
e 37 381
e 37 41
e 41 224
e 41 217
e 41 840
e 41 431
e 41 869
e 41 645
e 42 904
e 42 159
e 42 704
e 43 951
e 43 583
e 43 879
e 43 389
e 43 977
e 43 986
e 43 275
e 44 763
e 44 384
e 44 689
e 44 929
e 44 509
e 44 260
e 45 281
e 45 967
e 45 258
e 45 343
e 45 786
e 45 685
e 46 934
e 46 879
e 46 236
e 46 486
e 50 781
e 50 79
e 50 147
e 51 99
e 51 811
e 51 150
e 51 116
e 51 588
e 53 692
e 53 876
e 53 910
e 53 856
e 54 134
e 54 962
e 54 635
e 55 661
e 55 673
e 55 231
e 55 61
e 55 965
e 55 696
e 55 95
e 56 621
e 56 275
e 56 390
e 56 147
e 56 777
e 57 706
e 57 137
e 59 260
e 59 187
e 59 961
e 59 336
e 60 99
e 60 273
e 60 672
e 60 972
e 60 749
e 61 742
e 61 837
e 61 786
e 61 849
e 61 805
e 61 896
e 61 817
e 62 315
e 62 174
e 62 784
e 62 431
e 65 686
e 65 871
e 66 659
e 66 876
e 66 508
e 66 988
e 66 700
e 67 635
e 67 912
e 67 861
e 67 409
e 68 320
e 68 321
e 68 411
e 68 938
e 70 984
e 70 881
e 70 436
e 71 311
e 71 882
e 71 556
e 72 383
e 72 137
e 72 710
e 74 576
e 74 308
e 74 379
e 74 776
e 75 986
e 75 258
e 75 676
e 75 320
e 75 404
e 75 462
e 76 110
e 76 149
e 76 940
e 76 365
e 77 926
e 77 578
e 77 230
e 78 223
e 78 250
e 78 391
e 79 116
e 79 767
e 81 974
e 81 235
e 81 673
e 82 235
e 82 835
e 82 937
e 82 855
e 82 829
e 84 561
e 84 315
e 84 985
e 84 709
e 84 129
e 85 128
e 85 196
e 85 351
e 85 997
e 85 90
e 87 519
e 87 130
e 87 925
e 88 594
e 88 889
e 88 788
e 88 698
e 89 712
e 89 978
e 89 506
e 90 223
e 90 611
e 90 233
e 90 353
e 90 685
e 90 492
e 90 112
e 91 856
e 91 391
e 91 685
e 91 665
e 91 480
e 91 583
e 91 589
e 91 814
e 92 485
e 92 241
e 92 403
e 93 582
e 93 261
e 93 126
e 93 660
e 93 792
e 93 573
e 94 610
e 94 700
e 94 646
e 94 295
e 94 540
e 95 224
e 95 187
e 96 291
e 96 430
e 96 438
e 97 411
e 97 750
e 97 287
e 97 795
e 97 291
e 97 234
e 98 137
e 98 222
e 98 231
e 98 967
e 98 784
e 98 780
e 99 869
e 100 868
e 100 285
e 100 666
e 102 235
e 102 659
e 102 143
e 102 539
e 102 736
e 103 244
e 103 999
e 103 513
e 103 649
e 103 922
e 103 913
e 104 166
e 104 160
e 104 346
e 104 181
e 104 975
e 105 116
e 105 533
e 105 946
e 106 148
e 106 203
e 106 882
e 108 765
e 108 988
e 108 205
e 108 902
e 109 234
e 109 910
e 109 686
e 109 139
e 110 955
e 110 310
e 110 765
e 111 643
e 111 502
e 111 138
e 111 761
e 112 206
e 112 738
e 112 457
e 112 776
e 113 464
e 113 698
e 113 207
e 113 536
e 114 150
e 114 352
e 114 533
e 114 768
e 116 594
e 116 341
e 116 132
e 116 222
e 116 713
e 116 606
e 118 708
e 118 933
e 118 946
e 119 256
e 119 121
e 119 575
e 120 235
e 120 674
e 120 137
e 120 696
e 120 691
e 121 426
e 121 583
e 121 594
e 122 231
e 122 666
e 122 674
e 122 530
e 123 738
e 123 532
e 123 550
e 126 603
e 126 373
e 126 350
e 126 295
e 127 346
e 127 914
e 127 566
e 128 646
e 128 294
e 128 980
e 128 357
e 128 170
e 129 798
e 129 211
e 129 319
e 130 136
e 130 399
e 130 275
e 130 562
e 131 563
e 131 198
e 131 222
e 131 646
e 131 163
e 131 315
e 132 516
e 132 870
e 132 396
e 132 487
e 133 525
e 133 620
e 133 280
e 134 874
e 134 619
e 134 352
e 134 776
e 134 598
e 136 342
e 136 384
e 136 290
e 137 389
e 137 398
e 138 539
e 138 390
e 139 639
e 139 614
e 139 530
e 141 788
e 141 498
e 141 969
e 143 948
e 143 337
e 143 560
e 143 438
e 143 301
e 146 778
e 146 347
e 146 723
e 147 811
e 147 862
e 147 993
e 148 892
e 148 886
e 148 644
e 149 946
e 149 940
e 149 994
e 149 878
e 149 746
e 150 797
e 150 646
e 150 474
e 150 624
e 150 578
e 150 276
e 150 464
e 151 544
e 151 625
e 151 283
e 151 524
e 151 168
e 151 929
e 151 736
e 151 177
e 152 615
e 152 753
e 152 341
e 152 768
e 158 217
e 158 718
e 158 933
e 159 203
e 159 548
e 159 858
e 159 373
e 160 628
e 160 354
e 160 368
e 161 472
e 161 326
e 161 190
e 161 933
e 162 432
e 162 808
e 162 735
e 163 212
e 163 608
e 164 880
e 164 926
e 164 800
e 165 636
e 165 612
e 165 610
e 166 929
e 166 749
e 166 562
e 167 353
e 167 171
e 167 934
e 167 699
e 167 380
e 168 348
e 168 428
e 170 788
e 170 622
e 170 196
e 171 556
e 171 265
e 172 398
e 172 481
e 172 750
e 172 261
e 174 262
e 174 348
e 174 895
e 175 559
e 175 409
e 175 250
e 175 593
e 175 941
e 175 966
e 176 398
e 176 401
e 176 715
e 177 268
e 177 331
e 177 551
e 177 674
e 177 710
e 180 192
e 180 397
e 181 203
e 181 585
e 181 760
e 181 481
e 181 401
e 185 541
e 185 596
e 185 465
e 187 668
e 187 727
e 187 820
e 188 581
e 188 848
e 188 569
e 188 775
e 189 992
e 189 429
e 189 694
e 189 712
e 189 561
e 189 698
e 190 867
e 190 222
e 190 263
e 190 509
e 190 415
e 192 282
e 192 492
e 192 752
e 195 355
e 195 299
e 195 510
e 195 368
e 196 913
e 197 931
e 197 874
e 198 477
e 198 502
e 198 635
e 199 619
e 199 366
e 199 856
e 199 579
e 199 896
e 199 488
e 199 609
e 200 498
e 200 767
e 200 532
e 201 999
e 201 320
e 201 930
e 201 687
e 202 844
e 202 940
e 202 781
e 202 888
e 202 843
e 202 401
e 203 805
e 203 993
e 203 446
e 203 311
e 205 824
e 205 821
e 205 931
e 205 941
e 206 408
e 206 481
e 206 805
e 207 566
e 207 665
e 207 469
e 209 563
e 209 568
e 209 512
e 209 473
e 211 990
e 211 402
e 211 828
e 212 779
e 212 550
e 212 696
e 212 643
e 212 525
e 213 503
e 213 294
e 213 266
e 215 299
e 215 976
e 215 645
e 215 583
e 216 498
e 216 890
e 216 376
e 216 582
e 216 340
e 216 381
e 217 315
e 217 453
e 218 307
e 218 881
e 221 656
e 221 371
e 221 806
e 221 294
e 223 404
e 223 832
e 223 698
e 223 780
e 223 495
e 224 337
e 224 393
e 224 310
e 224 929
e 224 355
e 225 805
e 225 343
e 225 382
e 225 723
e 225 412
e 225 595
e 228 855
e 228 423
e 228 927
e 228 381
e 230 522
e 230 853
e 231 294
e 231 823
e 231 232
e 232 384
e 232 583
e 232 875
e 232 704
e 233 959
e 233 531
e 233 400
e 233 857
e 233 994
e 233 781
e 233 285
e 233 793
e 233 786
e 233 282
e 233 714
e 234 368
e 234 586
e 234 287
e 234 767
e 235 442
e 235 339
e 235 779
e 235 314
e 236 796
e 236 558
e 236 694
e 238 512
e 238 405
e 238 609
e 239 308
e 239 509
e 239 628
e 240 422
e 240 599
e 240 668
e 241 493
e 241 576
e 241 350
e 241 733
e 241 993
e 241 877
e 242 339
e 242 738
e 242 307
e 243 546
e 243 849
e 243 876
e 244 454
e 244 437
e 244 688
e 244 994
e 246 791
e 246 392
e 246 983
e 247 760
e 247 727
e 247 566
e 248 465
e 248 791
e 249 569
e 249 653
e 249 727
e 250 997
e 252 409
e 252 290
e 252 527
e 252 262
e 252 951
e 252 543
e 253 399
e 253 341
e 253 571
e 253 404
e 253 762
e 255 844
e 255 941
e 255 506
e 255 797
e 256 439
e 256 539
e 257 659
e 257 565
e 257 438
e 258 468
e 258 903
e 258 446
e 258 872
e 259 309
e 259 606
e 260 661
e 260 284
e 260 959
e 260 407
e 260 859
e 261 684
e 261 342
e 261 337
e 261 285
e 262 531
e 262 834
e 262 339
e 263 450
e 263 810
e 263 299
e 263 816
e 265 879
e 265 513
e 266 962
e 266 316
e 266 544
e 267 452
e 267 377
e 267 513
e 268 835
e 268 578
e 270 833
e 270 973
e 270 558
e 270 741
e 270 430
e 270 697
e 271 512
e 271 639
e 271 992
e 271 694
e 273 378
e 273 495
e 273 594
e 273 893
e 274 585
e 274 407
e 274 652
e 274 967
e 276 549
e 276 641
e 279 554
e 279 581
e 279 310
e 280 781
e 281 890
e 281 729
e 282 410
e 282 373
e 282 738
e 283 912
e 283 560
e 283 300
e 283 393
e 284 649
e 284 694
e 285 975
e 285 303
e 285 904
e 287 385
e 287 673
e 287 769
e 287 444
e 287 303
e 290 472
e 290 863
e 290 457
e 291 336
e 291 463
e 291 408
e 291 622
e 291 437
e 291 931
e 292 961
e 292 935
e 292 396
e 292 401
e 293 946
e 293 747
e 293 510
e 293 965
e 293 418
e 293 821
e 293 885
e 294 580
e 294 720
e 294 875
e 294 521
e 294 939
e 295 708
e 298 978
e 298 684
e 298 876
e 298 712
e 299 342
e 299 506
e 299 726
e 300 393
e 300 882
e 301 404
e 301 966
e 301 835
e 303 933
e 303 525
e 305 362
e 305 564
e 305 596
e 306 635
e 306 378
e 306 704
e 307 474
e 307 742
e 308 498
e 308 887
e 308 571
e 309 738
e 309 311
e 309 358
e 310 565
e 310 724
e 310 420
e 310 687
e 311 639
e 311 990
e 311 544
e 312 370
e 312 707
e 312 974
e 312 668
e 314 495
e 314 964
e 315 571
e 315 890
e 316 516
e 316 349
e 316 589
e 316 591
e 317 385
e 317 321
e 317 977
e 317 929
e 317 832
e 317 783
e 319 541
e 319 741
e 319 571
e 319 500
e 319 609
e 321 460
e 321 763
e 321 743
e 323 992
e 323 410
e 323 685
e 326 753
e 326 617
e 326 394
e 326 883
e 326 893
e 327 992
e 327 895
e 327 997
e 327 506
e 329 506
e 329 898
e 329 562
e 329 515
e 330 597
e 330 535
e 330 440
e 331 875
e 331 832
e 331 834
e 331 856
e 332 635
e 332 612
e 332 997
e 332 867
e 335 404
e 335 495
e 335 510
e 335 393
e 335 729
e 335 508
e 336 531
e 336 762
e 336 458
e 337 892
e 337 890
e 337 605
e 337 585
e 338 629
e 338 503
e 338 879
e 338 857
e 338 467
e 339 674
e 339 451
e 339 686
e 339 613
e 340 597
e 340 536
e 340 747
e 340 588
e 341 961
e 341 614
e 341 805
e 341 978
e 343 379
e 343 777
e 343 776
e 343 762
e 343 350
e 346 513
e 347 542
e 347 383
e 348 850
e 349 620
e 349 533
e 351 699
e 351 814
e 351 434
e 351 989
e 351 596
e 352 649
e 352 609
e 353 828
e 353 493
e 353 530
e 354 462
e 354 432
e 354 835
e 355 543
e 355 971
e 355 718
e 356 412
e 356 423
e 356 958
e 357 881
e 357 419
e 357 775
e 358 580
e 358 940
e 358 512
e 358 610
e 360 813
e 360 367
e 360 493
e 360 885
e 362 600
e 362 576
e 362 486
e 362 900
e 362 389
e 362 916
e 363 671
e 363 976
e 363 936
e 364 635
e 364 645
e 364 753
e 365 548
e 365 576
e 365 800
e 365 725
e 365 562
e 365 645
e 365 480
e 366 513
e 366 429
e 367 811
e 367 764
e 367 533
e 368 376
e 368 675
e 370 413
e 370 890
e 370 485
e 370 437
e 370 439
e 370 378
e 370 835
e 371 440
e 371 603
e 371 427
e 373 532
e 373 590
e 373 506
e 373 775
e 373 519
e 374 511
e 374 487
e 375 425
e 375 780
e 375 430
e 376 730
e 376 738
e 377 879
e 377 937
e 377 511
e 377 934
e 377 738
e 377 886
e 378 890
e 379 565
e 379 726
e 379 802
e 380 590
e 380 409
e 380 989
e 380 881
e 381 873
e 381 560
e 381 612
e 382 389
e 382 996
e 382 766
e 383 449
e 383 450
e 383 930
e 383 583
e 384 875
e 384 444
e 384 856
e 384 986
e 385 861
e 385 781
e 385 414
e 385 927
e 385 451
e 389 724
e 390 706
e 390 653
e 391 872
e 391 435
e 391 547
e 392 823
e 392 839
e 392 832
e 392 645
e 392 904
e 392 634
e 392 503
e 392 741
e 394 539
e 394 660
e 394 399
e 394 530
e 395 524
e 395 913
e 395 796
e 395 645
e 396 800
e 397 898
e 397 856
e 397 806
e 397 495
e 398 567
e 398 998
e 398 896
e 398 596
e 398 444
e 399 838
e 399 839
e 399 500
e 399 790
e 399 862
e 400 621
e 400 962
e 400 454
e 401 478
e 401 469
e 401 653
e 401 942
e 402 579
e 402 998
e 403 840
e 403 848
e 404 810
e 404 812
e 405 672
e 405 515
e 405 974
e 405 842
e 405 699
e 407 912
e 407 827
e 407 719
e 407 629
e 408 877
e 408 659
e 408 423
e 409 812
e 410 688
e 410 533
e 411 862
e 411 512
e 412 661
e 412 844
e 412 511
e 412 651
e 412 699
e 412 747
e 413 493
e 413 873
e 413 751
e 414 544
e 414 733
e 414 472
e 414 713
e 415 448
e 415 589
e 416 776
e 416 573
e 416 888
e 418 736
e 418 738
e 418 908
e 418 672
e 418 447
e 418 732
e 419 522
e 419 463
e 419 969
e 419 611
e 419 932
e 420 812
e 420 428
e 420 712
e 420 797
e 422 806
e 422 460
e 422 624
e 422 872
e 423 697
e 423 986
e 423 823
e 424 572
e 424 694
e 424 729
e 425 808
e 425 779
e 425 430
e 426 772
e 426 738
e 426 824
e 426 615
e 427 628
e 427 812
e 427 445
e 427 889
e 428 989
e 428 549
e 429 967
e 429 798
e 429 635
e 430 872
e 430 453
e 430 438
e 430 593
e 430 672
e 430 761
e 431 453
e 431 881
e 432 902
e 434 806
e 434 549
e 434 955
e 435 573
e 435 617
e 436 539
e 436 659
e 436 663
e 437 802
e 437 629
e 438 766
e 438 924
e 439 630
e 439 928
e 440 593
e 440 888
e 440 884
e 442 508
e 442 931
e 442 966
e 442 598
e 444 814
e 444 535
e 444 568
e 445 641
e 445 832
e 446 653
e 446 829
e 446 462
e 447 940
e 447 821
e 447 730
e 447 661
e 448 480
e 448 688
e 448 507
e 449 469
e 449 995
e 449 663
e 449 792
e 449 727
e 450 813
e 450 709
e 450 462
e 451 667
e 451 908
e 451 558
e 452 635
e 452 892
e 452 641
e 452 984
e 453 844
e 453 756
e 454 581
e 454 599
e 454 806
e 455 830
e 455 520
e 455 975
e 456 933
e 456 834
e 456 839
e 457 589
e 457 707
e 458 469
e 460 932
e 462 733
e 462 589
e 463 932
e 463 495
e 463 582
e 464 644
e 464 612
e 464 958
e 464 709
e 464 868
e 464 554
e 465 674
e 465 960
e 466 857
e 466 637
e 466 486
e 467 660
e 467 644
e 467 548
e 467 987
e 468 787
e 468 609
e 469 742
e 469 871
e 469 707
e 469 692
e 469 629
e 473 904
e 473 862
e 474 749
e 474 879
e 477 715
e 477 778
e 477 520
e 478 783
e 478 798
e 478 735
e 480 696
e 480 710
e 480 830
e 480 529
e 481 990
e 485 840
e 486 800
e 487 653
e 487 646
e 488 751
e 488 931
e 488 660
e 492 546
e 492 916
e 492 607
e 493 778
e 493 704
e 496 525
e 496 868
e 496 808
e 496 585
e 498 858
e 498 842
e 498 961
e 498 989
e 500 777
e 501 620
e 501 578
e 501 523
e 502 691
e 503 564
e 503 948
e 506 790
e 506 888
e 506 996
e 506 605
e 507 927
e 507 643
e 508 820
e 508 844
e 509 715
e 509 563
e 509 883
e 509 556
e 510 843
e 511 516
e 511 519
e 512 756
e 513 931
e 513 977
e 515 868
e 516 652
e 516 828
e 516 817
e 519 828
e 519 916
e 520 558
e 520 940
e 520 962
e 521 756
e 521 672
e 522 895
e 523 786
e 523 899
e 524 639
e 525 974
e 527 532
e 527 674
e 527 567
e 529 950
e 529 666
e 529 604
e 530 849
e 530 880
e 530 762
e 531 772
e 531 974
e 531 585
e 531 964
e 532 541
e 532 880
e 533 830
e 533 872
e 533 912
e 533 637
e 533 921
e 535 833
e 535 876
e 536 542
e 536 721
e 539 914
e 539 985
e 539 681
e 540 628
e 540 932
e 541 766
e 541 688
e 542 603
e 542 867
e 543 875
e 543 720
e 546 736
e 546 700
e 546 734
e 546 814
e 546 749
e 547 725
e 547 728
e 547 980
e 548 984
e 549 735
e 549 888
e 549 715
e 550 729
e 550 938
e 551 663
e 551 881
e 551 828
e 551 875
e 554 735
e 554 646
e 556 893
e 556 608
e 556 623
e 558 908
e 558 986
e 559 849
e 559 668
e 560 981
e 560 595
e 560 792
e 560 566
e 560 744
e 561 958
e 561 597
e 562 957
e 562 876
e 562 746
e 562 842
e 562 941
e 564 742
e 564 899
e 564 859
e 565 741
e 565 878
e 566 973
e 567 659
e 568 827
e 568 990
e 569 902
e 571 999
e 571 792
e 572 723
e 572 903
e 573 689
e 573 724
e 575 835
e 576 802
e 578 984
e 578 942
e 579 854
e 579 924
e 579 926
e 579 595
e 580 874
e 580 617
e 581 990
e 581 596
e 581 828
e 581 749
e 582 937
e 583 938
e 583 612
e 583 613
e 583 752
e 583 766
e 585 876
e 586 846
e 586 985
e 588 750
e 589 635
e 589 699
e 590 753
e 591 994
e 591 781
e 593 832
e 593 916
e 593 903
e 593 850
e 595 932
e 595 871
e 595 750
e 595 834
e 595 608
e 596 962
e 597 832
e 597 725
e 598 859
e 598 643
e 598 976
e 599 764
e 600 787
e 600 612
e 603 619
e 603 728
e 603 634
e 603 882
e 604 644
e 604 850
e 605 994
e 605 806
e 606 996
e 607 868
e 607 900
e 609 908
e 609 665
e 611 796
e 612 656
e 612 644
e 612 731
e 612 614
e 612 709
e 612 965
e 613 689
e 613 941
e 615 731
e 615 706
e 617 624
e 617 644
e 619 939
e 620 867
e 621 876
e 621 874
e 622 667
e 623 664
e 623 691
e 623 644
e 624 694
e 624 742
e 624 699
e 624 972
e 625 966
e 625 867
e 625 887
e 625 800
e 625 973
e 628 951
e 630 827
e 630 767
e 634 779
e 635 916
e 636 939
e 636 899
e 637 855
e 639 647
e 641 938
e 641 964
e 643 721
e 643 951
e 643 989
e 644 922
e 644 853
e 645 889
e 647 974
e 647 987
e 647 967
e 649 694
e 649 692
e 651 700
e 653 936
e 656 671
e 656 997
e 660 895
e 661 983
e 661 802
e 663 995
e 663 997
e 664 835
e 664 824
e 665 969
e 665 889
e 667 751
e 667 723
e 668 796
e 668 950
e 668 928
e 671 858
e 671 766
e 672 699
e 672 948
e 674 924
e 675 800
e 676 924
e 676 766
e 681 708
e 681 749
e 684 767
e 685 839
e 685 829
e 686 887
e 687 705
e 687 900
e 688 816
e 688 869
e 688 762
e 689 734
e 691 720
e 691 709
e 694 719
e 696 888
e 696 791
e 697 881
e 697 829
e 698 784
e 699 960
e 699 857
e 700 962
e 700 763
e 701 955
e 701 839
e 701 957
e 704 728
e 704 846
e 705 787
e 710 902
e 710 763
e 713 806
e 713 946
e 714 935
e 714 820
e 715 833
e 715 989
e 715 733
e 715 971
e 718 720
e 718 788
e 719 728
e 723 795
e 725 946
e 725 838
e 726 787
e 727 846
e 729 816
e 730 887
e 731 984
e 732 733
e 732 913
e 733 746
e 733 833
e 734 861
e 735 874
e 735 895
e 741 863
e 742 762
e 743 806
e 743 935
e 744 930
e 744 817
e 744 927
e 747 820
e 749 960
e 750 793
e 753 886
e 753 932
e 753 983
e 756 837
e 760 811
e 761 932
e 762 934
e 763 910
e 763 793
e 764 950
e 765 992
e 766 986
e 767 778
e 768 827
e 768 831
e 769 922
e 769 872
e 772 798
e 775 955
e 776 925
e 778 854
e 779 835
e 779 974
e 779 932
e 781 846
e 783 877
e 783 811
e 786 872
e 786 988
e 787 971
e 790 797
e 791 902
e 792 849
e 793 942
e 795 997
e 798 916
e 800 856
e 802 966
e 806 972
e 806 989
e 808 910
e 808 980
e 810 855
e 811 903
e 811 870
e 812 848
e 813 867
e 814 921
e 817 981
e 817 922
e 821 886
e 823 966
e 824 838
e 824 881
e 824 895
e 828 933
e 829 837
e 829 958
e 830 961
e 831 834
e 831 916
e 834 928
e 835 900
e 835 921
e 837 875
e 839 993
e 842 983
e 842 961
e 843 880
e 844 879
e 848 961
e 849 995
e 849 854
e 850 936
e 850 950
e 850 978
e 850 868
e 853 884
e 858 872
e 861 957
e 863 974
e 869 973
e 873 931
e 874 920
e 875 888
e 876 939
e 883 908
e 885 962
e 887 937
e 889 936
e 896 898
e 903 948
e 904 926
e 904 966
e 912 976
e 920 981
e 922 989
e 924 946
e 925 969
e 927 986
e 928 960
e 932 981
e 936 992
e 937 987
e 942 948
e 948 988
e 951 959
e 961 976
e 967 984
e 976 998
e 976 981
